NAME : single
TYPE : ATSP
DIMENSION : 19
EDGE_WEIGHT_TYPE : EXPLICIT
EDGE_WEIGHT_FORMAT : FULL_MATRIX
EDGE_WEIGHT_SECTION
0 50000 50000 50000 50000 50000 50100 50100 800 700 700 50000 700 600 500 200 100 200 100 
0 0 200 200 100 100 400 400 500 600 600 200 700 500 50000 50000 50000 50000 50000 
0 200 0 0 300 300 500 600 600 700 800 300 900 700 50000 50000 50000 50000 50000 
0 200 0 0 200 300 500 600 600 700 800 300 800 700 50000 50000 50000 50000 50000 
0 100 300 200 0 200 200 300 300 300 400 0 500 300 50000 50000 50000 50000 50000 
0 100 300 300 0 0 200 300 300 300 400 100 500 300 600 50000 50000 50000 50000 
0 400 500 500 200 200 0 200 300 300 400 200 500 400 600 50000 50000 50000 50000 
0 400 600 600 300 300 200 0 400 300 500 300 500 500 700 50000 50000 50000 50000 
0 500 600 600 300 300 300 300 0 200 200 300 100 200 500 600 50000 50000 50000 
0 600 700 700 300 300 300 400 100 0 100 300 100 200 300 400 50000 50000 50000 
0 600 800 800 400 400 400 500 200 100 0 400 200 200 200 400 400 500 400 
0 200 300 300 0 100 200 300 300 300 400 0 0 400 50000 50000 50000 50000 50000 
0 700 900 800 500 500 500 500 100 100 200 500 0 200 300 500 500 600 600 
0 500 700 700 300 300 400 500 200 200 200 400 200 0 400 50000 400 50000 50000 
0 50000 50000 50000 50000 600 600 700 500 300 200 50000 300 300 0 200 100 200 200 
0 50000 50000 50000 50000 50000 50000 50000 600 400 400 50000 500 400 100 0 200 200 100 
0 50000 50000 50000 50000 50000 50000 50000 50000 50000 400 50000 500 50000 200 200 0 100 100 
0 50000 50000 50000 50000 50000 50000 50000 50000 50000 500 50000 600 50000 200 200 100 0 100 
0 50000 50000 50000 50000 50000 50000 50000 50000 50000 400 50000 600 50000 200 100 100 100 0 
